
******************************************************************************
This program contains Ipopt, a library for large-scale nonlinear optimization.
 Ipopt is released as open source code under the Eclipse Public License (EPL).
         For more information visit http://projects.coin-or.org/Ipopt
******************************************************************************

This is Ipopt version 3.12.6, running with linear solver ma57.

Number of nonzeros in equality constraint Jacobian...:        0
Number of nonzeros in inequality constraint Jacobian.:        9
Number of nonzeros in Lagrangian Hessian.............:        3

Total number of variables............................:        3
                     variables with only lower bounds:        0
                variables with lower and upper bounds:        0
                     variables with only upper bounds:        0
Total number of equality constraints.................:        0
Total number of inequality constraints...............:        3
        inequality constraints with only lower bounds:        0
   inequality constraints with lower and upper bounds:        0
        inequality constraints with only upper bounds:        3

iter    objective    inf_pr   inf_du lg(mu)  ||d||  lg(rg) alpha_du alpha_pr  ls
   0  0.0000000e+00 2.00e+01 9.90e-01  -1.0 0.00e+00    -  0.00e+00 0.00e+00   0
   1  1.1385655e-01 6.05e+00 2.18e+00  -1.0 1.44e+00    -  7.14e-01 1.00e+00h  1
   2  5.5669164e+00 0.00e+00 2.27e+00  -1.0 4.27e+00    -  1.00e+00 1.00e+00H  1
   3  1.5097833e+00 8.05e-01 4.50e-01  -1.0 4.06e+00    -  1.00e+00 1.00e+00f  1
   4  2.2559187e+00 0.00e+00 1.32e-02  -1.0 7.46e-01    -  1.00e+00 1.00e+00h  1
   5  2.0148908e+00 1.16e-03 1.08e-03  -2.5 3.77e-01    -  1.00e+00 9.80e-01h  1
   6  2.0011298e+00 8.10e-04 2.81e-04  -3.8 7.31e-02    -  1.00e+00 1.00e+00h  1
   7  2.0000178e+00 1.54e-05 6.07e-06  -5.7 9.47e-03    -  1.00e+00 1.00e+00h  1
   8  2.0000055e+00 0.00e+00 1.77e-09  -5.7 1.54e-04    -  1.00e+00 1.00e+00h  1
   9  2.0000000e+00 0.00e+00 2.30e-12  -8.6 1.11e-05    -  1.00e+00 1.00e+00h  1

Number of Iterations....: 9

                                   (scaled)                 (unscaled)
Objective...............:   1.9999999975240130e+00    1.9999999975240130e+00
Dual infeasibility......:   2.2979396163691490e-12    2.2979396163691490e-12
Constraint violation....:   0.0000000000000000e+00    0.0000000000000000e+00
Complementarity.........:   2.5273373799406713e-09    2.5273373799406713e-09
Overall NLP error.......:   2.5273373799406713e-09    2.5273373799406713e-09


Number of objective function evaluations             = 11
Number of objective gradient evaluations             = 10
Number of equality constraint evaluations            = 0
Number of inequality constraint evaluations          = 11
Number of equality constraint Jacobian evaluations   = 0
Number of inequality constraint Jacobian evaluations = 10
Number of Lagrangian Hessian evaluations             = 9
Total CPU secs in IPOPT (w/o function evaluations)   =      0.007
Total CPU secs in NLP function evaluations           =      0.000

EXIT: Optimal Solution Found.

************************ CUTEst statistics ************************


 Package used            :  IPOPT
 Problem                 :  CHACONN2  
 # variables             =               3
 # constraints           =               3
 # objective functions   =        0.2200000E+02
 # objective gradients   =        0.1100000E+02
 # objective Hessians    =        0.1000000E+02
 # Hessian-vector prdct  =        0.0000000E+00
 # constraints functions =        0.2300000E+02
 # constraints gradients =        0.1200000E+02
 # constraints Hessians  =        0.1000000E+02
 Exit code               =               0
 Final f                 =   0.2000000E+01
 Set up time             =            0.00 seconds
 Solve time              =            0.02 seconds


******************************************************************

System Time =       0.0040000002 s.
